unknown
(model
; cardinality of BoundSet is 2
(declare-sort BoundSet 0)
; rep: @uc_BoundSet_0
; rep: @uc_BoundSet_1
; cardinality of UnboundSet is 1
(declare-sort UnboundSet 0)
(declare-fun groundTerm_3 () UnboundSet)
(define-fun Sneezed ((BOUND_VARIABLE_429 BoundSet)) Bool true)
(define-fun PowerWentOff ((BOUND_VARIABLE_429 BoundSet)) Bool true)
(define-fun Caused ((BOUND_VARIABLE_441 BoundSet) (BOUND_VARIABLE_442 BoundSet)) Bool false)
)
sat
(model
; cardinality of BoundSet is 1
(declare-sort BoundSet 0)
; rep: @uc_BoundSet_0
; cardinality of UnboundSet is 1
(declare-sort UnboundSet 0)
(declare-fun groundTerm_6 () UnboundSet)
(define-fun Sneezed ((BOUND_VARIABLE_465 BoundSet)) Bool true)
(define-fun PowerWentOff ((BOUND_VARIABLE_465 BoundSet)) Bool true)
(define-fun Caused ((BOUND_VARIABLE_473 BoundSet) (BOUND_VARIABLE_474 BoundSet)) Bool false)
)
